param set_len = 18;
param target := 1908171;
param values := [1] 390432 [2] 277372 [3] 208934 [4] 4779 [5] 443503 [6] 81475 [7] 164714 [8] 508908 [9] 476958 [10] 152742 [11] 58827 [12] 29658 [13] 79088 [14] 354658 [15] 251388 [16] 394565 [17] 506181 [18] 223533 ;
